sat

(objectives
 ((bvadd PriceProv8 (bvadd PriceProv7 (bvadd PriceProv6 (bvadd PriceProv5 (bvadd PriceProv4 (bvadd PriceProv3 (bvadd PriceProv1 PriceProv2))))))) (_ bv14432 32))
)
;; statistics
(
 :cnf-variables 671
 :cnf-literals 1696
 :cnf-clauses 807
 :sat-checks 9
 :sat-restarts 42
 :sat-decisions 71308
 :sat-random-decisions 46
 :sat-propagations 810812976
 :sat-theory-propagations 15
 :sat-watched-clauses-visited 893069218
 :sat-binary-watched-clauses-visited 558434357
 :sat-conflicts 34059
 :sat-theory-conflicts 0
 :theory-necessary-interface-equalities 0
 :theory-extra-interface-equalities 0
 :euf-total-calls 75192
 :euf-complete-calls 8
 :euf-conflicts 0
 :euf-implications 15
 :euf-explanations 3
 :euf-egraph-nodes-created 33799
 :euf-egraph-nodes-deleted 31510
 :euf-num-asserted-equalities 1619952
 :euf-num-asserted-inequalities 634052
 :euf-num-merges 3710290
 :euf-num-merges-undone 3710290
 :euf-num-atoms-retold 7456
 :la-total-calls 75192
 :la-complete-calls 8
 :la-conflicts 0
 :la-implications 0
 :la-explanations 0
 :la-num-equalities-split 0
 :la-num-tableau-rows 0
 :la-num-tableau-variables 0
 :bv-total-calls 75192
 :bv-complete-calls 8
 :bv-conflicts 0
 :bv-implications 0
 :bv-explanations 0
 :fp-total-calls 75192
 :fp-complete-calls 8
 :fp-conflicts 0
 :fp-implications 0
 :fp-explanations 0
 :arr-total-calls 75192
 :arr-complete-calls 8
 :arr-conflicts 0
 :arr-implications 0
 :arr-explanations 0
 :arr-write-lemmas-added 0
 :arr-row-lemmas-added 0
 :arr-ext-lemmas-added 0
 :arr-const-lemmas-added 0
 :na-total-calls 75192
 :na-complete-calls 8
 :na-conflicts 0
 :na-implications 0
 :na-explanations 0
 :na-num_nonlinear_multiplications 0
 :na-num_axiom_checks 0
 :na-num_zero_lemmas 0
 :na-num_sign_lemmas 0
 :na-num_neutral_lemmas 0
 :na-num_proportionality_lemmas 0
 :na-num_bound_lemmas 0
 :na-num_tangent_lemmas 0
 :na-num_monotonicity_lemmas 0
 :na-num_sat_checks 0
 :na-axiom_check_time 0.000
 :na-sat_check_time 0.000
 :time-seconds 152.329
 :memory-mb 106.266
)
